c
c start with comments
c
p cnf 28 19
2 -7 -5 0
9 -3 0
10 23 0
-9 -9 16 17 0
26 8 0
6 4 0
-17 -19 0
-9 -26 -14 21 0
5 -6 -15 24 21 0
20 27 17 0
-4 2 1 0
-2 -28 -15 0
3 -7 18 0
21 -11 7 12 -10 0
-16 15 -25 -12 0
7 -21 24 2 0
-22 -26 -14 -18 -21 0
-23 -13 0
-8 -4 12 0